; Copyright (c) 2026 The RIINA Authors. All rights reserved.
; Copyright (c) 2026 The RIINA Authors.
; Auto-generated from 02_FORMAL/coq/domains/SensorFusion.v (25 assertions)
; Generated by scripts/generate-full-stack.py
; Module: SensorFusion

(set-logic ALL)
(set-option :produce-models true)

; AnomalyResult (matches Coq: Inductive AnomalyResult)
(declare-datatypes ((AnomalyResult 0)) (((Normal) (Suspicious) (Anomalous))))

; byzantine_tolerant (matches Coq: Definition byzantine_tolerant)
(define-fun byzantine_tolerant () Bool Nat)

; sensor_authenticated (matches Coq: Definition sensor_authenticated)
(define-fun sensor_authenticated ((reading Reading)) Bool
  true)

; reading_fresh (matches Coq: Definition reading_fresh)
(define-fun reading_fresh ((reading Reading)) Bool
  Nat)

; trust_sufficient (matches Coq: Definition trust_sufficient)
(define-fun trust_sufficient ((sensor Sensor) (min_trust Int)) Bool
  Nat)

; cross_valid (matches Coq: Definition cross_valid)
(define-fun cross_valid ((cv CrossValidation)) Bool
  Nat)

; abs_diff (matches Coq: Definition abs_diff)
(define-fun abs_diff () Int true)

; detect_anomaly (matches Coq: Definition detect_anomaly)
(define-fun detect_anomaly () AnomalyResult true)

; fusion_sources_ok (matches Coq: Definition fusion_sources_ok)
(define-fun fusion_sources_ok ((result FusedResult) (min_sources Int)) Bool
  Nat)

; confidence_bounded (matches Coq: Definition confidence_bounded)
(define-fun confidence_bounded ((result FusedResult) (max_conf Int)) Bool
  Nat)

; temporally_consistent (matches Coq: Definition temporally_consistent)
(define-fun temporally_consistent () Prop true)

; sensor_types_diverse (matches Coq: Definition sensor_types_diverse)
(define-fun sensor_types_diverse () Int true)

; weight_valid (matches Coq: Definition weight_valid)
(define-fun weight_valid () Bool Nat)

; is_outlier (matches Coq: Definition is_outlier)
(define-fun is_outlier () Bool Nat)

; quorum_reached (matches Coq: Definition quorum_reached)
(define-fun quorum_reached () Bool Nat)

; reading_not_replayed (matches Coq: Definition reading_not_replayed)
(define-fun reading_not_replayed ((reading Reading)) Bool
  true)

; calibration_current (matches Coq: Definition calibration_current)
(define-fun calibration_current () Bool Nat)

; in_valid_range (matches Coq: Definition in_valid_range)
(define-fun in_valid_range () Bool true)

; rate_of_change_ok (matches Coq: Definition rate_of_change_ok)
(define-fun rate_of_change_ok () Bool Nat)

; redundancy_sufficient (matches Coq: Definition redundancy_sufficient)
(define-fun redundancy_sufficient () Bool Nat)

; sensor_healthy (matches Coq: Definition sensor_healthy)
(define-fun sensor_healthy () Bool Nat)

; channel_secure (matches Coq: Definition channel_secure)
(define-fun channel_secure () Bool true)

; all_readings_logged (matches Coq: Definition all_readings_logged)
(define-fun all_readings_logged () Bool true)

; sensor_layers (matches Coq: Definition sensor_layers)
(define-fun sensor_layers () Bool true)

; sensor_001_byzantine_threshold (matches Coq: Theorem sensor_001_byzantine_threshold)
(assert (= true true)) ; sensor_001_byzantine_threshold [untranslatable]

; sensor_002_honest_majority (matches Coq: Theorem sensor_002_honest_majority)
(assert (= true true)) ; sensor_002_honest_majority [untranslatable]

; sensor_003_authenticated (matches Coq: Theorem sensor_003_authenticated)
(assert (= true true)) ; sensor_003_authenticated [untranslatable]

; sensor_004_freshness (matches Coq: Theorem sensor_004_freshness)
(assert (= true true)) ; sensor_004_freshness [untranslatable]

; sensor_005_trust_threshold (matches Coq: Theorem sensor_005_trust_threshold)
(assert (= true true)) ; sensor_005_trust_threshold [untranslatable]

; sensor_006_cross_validation (matches Coq: Theorem sensor_006_cross_validation)
(assert (= true true)) ; sensor_006_cross_validation [untranslatable]

; sensor_007_anomaly_detected (matches Coq: Theorem sensor_007_anomaly_detected)
(assert (= true true)) ; sensor_007_anomaly_detected [untranslatable]

; sensor_008_normal_accepted (matches Coq: Theorem sensor_008_normal_accepted)
(assert (= true true)) ; sensor_008_normal_accepted [untranslatable]

; sensor_009_min_sources (matches Coq: Theorem sensor_009_min_sources)
(assert (= true true)) ; sensor_009_min_sources [untranslatable]

; sensor_010_confidence_bounded (matches Coq: Theorem sensor_010_confidence_bounded)
(assert (= true true)) ; sensor_010_confidence_bounded [untranslatable]

; sensor_011_temporal_consistent (matches Coq: Theorem sensor_011_temporal_consistent)
(assert (= true true)) ; sensor_011_temporal_consistent [untranslatable]

; sensor_012_diversity (matches Coq: Theorem sensor_012_diversity)
(assert (= true true)) ; sensor_012_diversity [untranslatable]

; sensor_013_weight_bounded (matches Coq: Theorem sensor_013_weight_bounded)
(assert (= true true)) ; sensor_013_weight_bounded [untranslatable]

; sensor_014_outlier_rejected (matches Coq: Theorem sensor_014_outlier_rejected)
(assert (= true true)) ; sensor_014_outlier_rejected [untranslatable]

; sensor_015_quorum (matches Coq: Theorem sensor_015_quorum)
(assert (= true true)) ; sensor_015_quorum [untranslatable]

; sensor_016_no_replay (matches Coq: Theorem sensor_016_no_replay)
(assert (= true true)) ; sensor_016_no_replay [untranslatable]

; sensor_017_calibration_valid (matches Coq: Theorem sensor_017_calibration_valid)
(assert (= true true)) ; sensor_017_calibration_valid [untranslatable]

; sensor_018_range_valid (matches Coq: Theorem sensor_018_range_valid)
(assert (= true true)) ; sensor_018_range_valid [untranslatable]

; sensor_019_rate_bounded (matches Coq: Theorem sensor_019_rate_bounded)
(assert (= true true)) ; sensor_019_rate_bounded [untranslatable]

; sensor_020_redundancy (matches Coq: Theorem sensor_020_redundancy)
(assert (= true true)) ; sensor_020_redundancy [untranslatable]

; sensor_021_health_ok (matches Coq: Theorem sensor_021_health_ok)
(assert (= true true)) ; sensor_021_health_ok [untranslatable]

; sensor_022_deterministic (matches Coq: Theorem sensor_022_deterministic)
(assert (= true true)) ; sensor_022_deterministic [untranslatable]

; sensor_023_secure_channel (matches Coq: Theorem sensor_023_secure_channel)
(assert (= true true)) ; sensor_023_secure_channel [untranslatable]

; sensor_024_audit_complete (matches Coq: Theorem sensor_024_audit_complete)
(assert (= true true)) ; sensor_024_audit_complete [untranslatable]

; sensor_025_defense_in_depth (matches Coq: Theorem sensor_025_defense_in_depth)
(assert (= true true)) ; sensor_025_defense_in_depth [untranslatable]

; Verify all assertions are satisfiable
(check-sat)
(exit)
